p edge 26 182
e 1 2
e 1 4
e 1 5
e 1 7
e 1 8
e 1 13
e 1 14
e 2 8
e 2 12
e 2 14
e 2 21
e 2 22
e 2 24
e 2 26
e 3 6
e 3 11
e 3 11
e 3 14
e 3 16
e 3 19
e 3 21
e 4 2
e 4 10
e 4 19
e 4 19
e 4 19
e 4 22
e 4 23
e 5 10
e 5 11
e 5 11
e 5 13
e 5 21
e 5 24
e 5 24
e 6 14
e 6 15
e 6 15
e 6 18
e 6 19
e 6 20
e 6 20
e 7 1
e 7 9
e 7 12
e 7 12
e 7 18
e 7 19
e 7 25
e 8 1
e 8 6
e 8 7
e 8 9
e 8 13
e 8 14
e 8 17
e 9 3
e 9 4
e 9 4
e 9 5
e 9 15
e 9 17
e 9 24
e 10 2
e 10 15
e 10 16
e 10 16
e 10 17
e 10 21
e 10 24
e 11 5
e 11 9
e 11 9
e 11 10
e 11 12
e 11 16
e 11 18
e 12 6
e 12 7
e 12 9
e 12 18
e 12 18
e 12 20
e 12 23
e 13 2
e 13 6
e 13 8
e 13 8
e 13 12
e 13 14
e 13 17
e 14 3
e 14 6
e 14 9
e 14 12
e 14 22
e 14 23
e 14 25
e 15 2
e 15 3
e 15 8
e 15 11
e 15 14
e 15 20
e 15 20
e 16 4
e 16 4
e 16 6
e 16 19
e 16 21
e 16 23
e 16 24
e 17 3
e 17 6
e 17 7
e 17 12
e 17 19
e 17 19
e 17 21
e 18 2
e 18 5
e 18 14
e 18 15
e 18 16
e 18 23
e 18 25
e 19 1
e 19 1
e 19 2
e 19 10
e 19 12
e 19 21
e 19 24
e 20 4
e 20 9
e 20 19
e 20 24
e 20 24
e 20 25
e 20 25
e 21 3
e 21 5
e 21 7
e 21 12
e 21 17
e 21 18
e 21 22
e 22 2
e 22 12
e 22 18
e 22 19
e 22 23
e 22 25
e 22 26
e 23 1
e 23 13
e 23 22
e 23 24
e 23 25
e 23 25
e 23 26
e 24 5
e 24 13
e 24 13
e 24 16
e 24 17
e 24 18
e 24 18
e 25 6
e 25 6
e 25 13
e 25 14
e 25 14
e 25 15
e 25 18
e 26 1
e 26 6
e 26 6
e 26 10
e 26 15
e 26 19
e 26 25
